%%% static parameters %%%
timespan = 1;
Fact = [1];
Distr1 = [15];
Distr2 = [20];
Clients_N = [100];
Demand_W = [15];
Lt0 = [4];
Lt1 = [4];
SS_ = [0.85];
DS_D = [20];
K = [200];
MA = [500];
%%% dynamic parameters %%%
lost_ratio_sales_ret_th = 0.18555032429222393;
lost_ratio_sales_ret_w = 17;
lost_ratio_sales_dis_th = 0.12657184946662867;
lost_ratio_sales_dis_w = 93;
lost_ratio_sales_fac_th = 0.17899555069164685;
lost_ratio_sales_fac_w = 89;
stock_customer_MA_mean_relative_th = 0.19212299395884036;
stock_customer_MA_mean_relative_w = 51;
stock_distributor_MA_mean_relative_th = 0.12190788891776128;
stock_distributor_MA_mean_relative_w = 41;
stock_retailer_MA_mean_relative_th = 0.8753734246940036;
stock_retailer_MA_mean_relative_w = 4;
stock_factory_MA_mean_relative_th = 0.1762061900937968;
stock_factory_MA_mean_relative_w = 65;
